NAME        
OBJSENSE
  MAX
ROWS
 N  Obj     
 E  r0      
COLUMNS
    c0        Obj       5
    c0        r0        1
    c1        Obj       2
    c1        r0        1
RHS
    RHS_V     r0        5
BOUNDS
 UP BOUND     c0        20
 UP BOUND     c1        20
ENDATA
